1430	1931
1425	2139
1420	2340
1415	2341
1405	2356
1400	2366
1395	2559
1385	2576
1380	2578
1370	2583
1365	2596
1360	2604
1350	2617
1345	2620
1340	2622
1335	2628
1325	2642
1320	2644
1315	2646
1310	2649
1300	2662
1290	2668
1280	2673
1275	2675
1270	2686
1265	2688
1260	2691
1255	2693
1250	2695
1240	2701
1230	2715
1225	2717
1220	2719
1215	2722
1205	2735
